Route #1: 5 15 20 37 36 47 21 48
Route #2: 33 23 43 41 42 22 1 28
Route #3: 3 44 32 9 39 40
Route #4: 8 35 19 14 11 38 7
Route #5: 16 49 24 18 25 31 10 12
Route #6: 17 6 2 30 29 45 13 27
Route #7: 4 34 46 26
Cost 593.6695498216947